p cnf 50 70
23 -32 36 0
-14 43 -23 0
-15 38 -9 0
-24 37 -50 0
-47 -22 -40 0
-8 21 28 0
26 30 -27 0
3 48 -1 0
-7 2 47 0
-22 -40 -3 0
-49 -30 23 0
-31 -20 25 0
-47 -26 4 0
-37 36 -15 0
-2 44 30 0
-34 42 -4 0
18 -48 -4 0
-36 35 19 0
-3 7 17 0
43 37 -22 0
-12 30 -19 0
9 -46 -19 0
-32 31 -34 0
44 -10 34 0
-34 43 36 0
-44 23 -29 0
10 32 31 0
37 -34 -33 0
-9 -21 20 0
-11 25 16 0
34 -36 -4 0
27 -22 13 0
-47 -36 26 0
17 10 -2 0
-8 39 30 0
-45 1 11 0
-48 -7 17 0
-17 -40 -18 0
28 47 17 0
22 18 -3 0
37 44 8 0
-19 -12 44 0
-4 -35 26 0
46 45 -10 0
31 -1 -6 0
-31 2 43 0
27 -46 4 0
-29 -31 14 0
37 -22 34 0
-46 -16 -15 0
x -1 -4 -6 7 9 -12 15 -16 -17 20 23 -27 28 -31 -32 35 -37 -39 43 -44 45 -46 -47 50 0
x 1 2 -3 -6 8 10 -12 13 -16 17 19 -20 21 -24 27 -28 -29 34 -35 -39 41 42 43 -44 -48 49 -50 0
x -1 2 3 4 -5 -6 -7 -8 10 11 14 -15 -16 17 -20 -24 -25 26 30 31 32 33 -36 -38 43 -46 -48 -50 0
x 1 3 -12 17 18 22 -24 26 -29 30 -32 33 -34 -35 -38 39 40 -41 42 43 44 46 48 0
x -4 -5 7 9 11 -14 -19 22 -26 27 -29 31 -34 37 -39 -40 41 44 45 46 48 0
x -1 3 6 7 8 -9 -11 -12 16 17 -21 -22 -23 24 -27 32 -35 36 -37 -38 39 40 -41 -42 44 45 47 -48 0
x 3 -5 6 -9 -12 15 -19 21 -24 -25 26 -28 -30 -31 32 33 34 -35 36 -38 39 41 42 43 48 50 0
x 2 -3 -4 -5 7 12 -13 -15 16 -17 -18 21 -22 -23 -25 28 -29 31 32 -33 36 -42 -45 46 47 49 50 0
x 1 2 5 10 -11 -12 13 -14 16 17 20 -22 -23 24 -25 28 29 33 -37 -38 -41 -44 -46 49 0
x -1 -4 8 -11 -13 15 17 20 21 -24 28 -29 31 33 -34 -36 37 -38 39 -41 43 -44 46 -47 48 49 0
x -1 -2 -4 -5 -7 8 -9 11 -13 -17 21 -25 -27 28 29 30 34 -36 -39 -40 44 -45 48 0
x 2 -3 5 -7 9 10 15 18 21 -22 25 26 27 -32 34 -36 -37 -38 39 -42 45 -46 47 -48 -49 0
x -2 -4 -5 6 -11 12 13 -15 16 -19 22 26 28 29 -30 -32 -34 -37 42 -43 46 47 49 50 0
x 1 -3 -4 -5 -8 -9 -14 -17 -19 20 -22 -23 -24 25 -26 27 28 -33 34 35 37 -40 43 44 -46 -48 0
x -3 4 -5 -6 -7 10 11 -19 20 22 23 24 -25 -28 30 34 -35 38 39 -41 -43 44 46 -50 0
x -2 3 -4 6 7 8 11 12 14 -18 -20 -29 -30 31 -32 -33 36 -37 -39 -41 -43 -44 -46 -47 -49 50 0
x -1 2 3 5 6 -7 9 11 -12 -15 -16 26 29 -30 -37 -39 47 48 50 0
x 4 -6 -9 10 -11 16 -17 18 -25 27 -28 -29 31 32 -35 -36 -37 38 -41 -43 -44 -46 -47 -48 0
x -1 -4 6 -8 10 11 16 -17 -18 -19 20 23 -24 -27 -28 -33 -35 36 40 42 43 47 -48 50 0
x -2 7 -8 10 -11 -12 13 -14 -16 -20 21 -22 -25 -26 27 30 31 34 37 38 39 -41 -46 47 49 0
